858,753
858,59
909,480
542,833
751,850
628,379
339,517
644,520
1023,295
744,343
617,605
789,619
681,286
778,476
999,724
746,820
1055,216
382,-6
975,555
584,336
681,556
910,91
681,766
801,36
857,164
1108,267
1093,705
586,593
792,64
871,32
912,-48
681,496
803,646
1055,216
351,406
